scheduleLength  = 7;
numberEmployees = 120;
numberShifts    = 3;
minDaysOff      = 2;
maxDaysOff      = 4;
minDaysWork     = 3;
maxDaysWork     = 7;
shiftNames      = ["D", "A", "N"];
minDaysShift    = [2, 2, 2];
maxDaysShift    = [6, 5, 4];

requirements = [| 55, 55, 55, 55, 55, 55, 55,
                | 25, 25, 25, 25, 25, 25, 25,
                | 5, 5, 5, 5, 5, 5, 5  |];

numberForbiddenShifts2 = 3;
forbiddenShifts2 = [| 3, 1,
                    | 3, 2,
                    | 2, 1 |];

numberForbiddenShifts3 = 0;
forbiddenShifts3 = array2d({},1..2,[]);

